* #variable= 1437 #constraint= 737 
+1 x1401 = 0 ;
+1 x104 -1 x393 = 0 ;
+1 x393 -1 x597 = 0 ;
+1 x597 -1 x745 = 0 ;
+1 x745 -1 x856 = 0 ;
+1 x856 -1 x943 = 0 ;
+1 x943 -1 x1014 = 0 ;
+1 x1078 +2 x1095 +4 x1112 +8 x1129 +16 x1146 +32 x1163 +64 x1180 +128 x1197 +256 x1214 +512 x1231 +1024 x1248 +2048 x1265 +4096 x1282 +8192 x1299 +16384 x1316 +32768 x1333 +65536 x1350 +2 x1079 +4 x1096 +8 x1113 +16 x1130 +32 x1147 +64 x1164 +128 x1181 +256 x1198 +512 x1215 +1024 x1232 +2048 x1249 +4096 x1266 +8192 x1283 +16384 x1300 +32768 x1317 +65536 x1334 +131072 x1351 +4 x1080 +8 x1097 +16 x1114 +32 x1131 +64 x1148 +128 x1165 +256 x1182 +512 x1199 +1024 x1216 +2048 x1233 +4096 x1250 +8192 x1267 +16384 x1284 +32768 x1301 +65536 x1318 +131072 x1335 +262144 x1352 +8 x1081 +16 x1098 +32 x1115 +64 x1132 +128 x1149 +256 x1166 +512 x1183 +1024 x1200 +2048 x1217 +4096 x1234 +8192 x1251 +16384 x1268 +32768 x1285 +65536 x1302 +131072 x1319 +262144 x1336 +524288 x1353 +16 x1082 +32 x1099 +64 x1116 +128 x1133 +256 x1150 +512 x1167 +1024 x1184 +2048 x1201 +4096 x1218 +8192 x1235 +16384 x1252 +32768 x1269 +65536 x1286 +131072 x1303 +262144 x1320 +524288 x1337 +1048576 x1354 +32 x1083 +64 x1100 +128 x1117 +256 x1134 +512 x1151 +1024 x1168 +2048 x1185 +4096 x1202 +8192 x1219 +16384 x1236 +32768 x1253 +65536 x1270 +131072 x1287 +262144 x1304 +524288 x1321 +1048576 x1338 +2097152 x1355 +64 x1084 +128 x1101 +256 x1118 +512 x1135 +1024 x1152 +2048 x1169 +4096 x1186 +8192 x1203 +16384 x1220 +32768 x1237 +65536 x1254 +131072 x1271 +262144 x1288 +524288 x1305 +1048576 x1322 +2097152 x1339 +4194304 x1356 +128 x1085 +256 x1102 +512 x1119 +1024 x1136 +2048 x1153 +4096 x1170 +8192 x1187 +16384 x1204 +32768 x1221 +65536 x1238 +131072 x1255 +262144 x1272 +524288 x1289 +1048576 x1306 +2097152 x1323 +4194304 x1340 +8388608 x1357 +256 x1086 +512 x1103 +1024 x1120 +2048 x1137 +4096 x1154 +8192 x1171 +16384 x1188 +32768 x1205 +65536 x1222 +131072 x1239 +262144 x1256 +524288 x1273 +1048576 x1290 +2097152 x1307 +4194304 x1324 +8388608 x1341 +16777216 x1358 +512 x1087 +1024 x1104 +2048 x1121 +4096 x1138 +8192 x1155 +16384 x1172 +32768 x1189 +65536 x1206 +131072 x1223 +262144 x1240 +524288 x1257 +1048576 x1274 +2097152 x1291 +4194304 x1308 +8388608 x1325 +16777216 x1342 +33554432 x1359 +1024 x1088 +2048 x1105 +4096 x1122 +8192 x1139 +16384 x1156 +32768 x1173 +65536 x1190 +131072 x1207 +262144 x1224 +524288 x1241 +1048576 x1258 +2097152 x1275 +4194304 x1292 +8388608 x1309 +16777216 x1326 +33554432 x1343 +67108864 x1360 +2048 x1089 +4096 x1106 +8192 x1123 +16384 x1140 +32768 x1157 +65536 x1174 +131072 x1191 +262144 x1208 +524288 x1225 +1048576 x1242 +2097152 x1259 +4194304 x1276 +8388608 x1293 +16777216 x1310 +33554432 x1327 +67108864 x1344 +134217728 x1361 +4096 x1090 +8192 x1107 +16384 x1124 +32768 x1141 +65536 x1158 +131072 x1175 +262144 x1192 +524288 x1209 +1048576 x1226 +2097152 x1243 +4194304 x1260 +8388608 x1277 +16777216 x1294 +33554432 x1311 +67108864 x1328 +134217728 x1345 +268435456 x1362 +8192 x1091 +16384 x1108 +32768 x1125 +65536 x1142 +131072 x1159 +262144 x1176 +524288 x1193 +1048576 x1210 +2097152 x1227 +4194304 x1244 +8388608 x1261 +16777216 x1278 +33554432 x1295 +67108864 x1312 +134217728 x1329 +268435456 x1346 +536870912 x1363 +16384 x1092 +32768 x1109 +65536 x1126 +131072 x1143 +262144 x1160 +524288 x1177 +1048576 x1194 +2097152 x1211 +4194304 x1228 +8388608 x1245 +16777216 x1262 +33554432 x1279 +67108864 x1296 +134217728 x1313 +268435456 x1330 +536870912 x1347 +1073741824 x1364 +32768 x1093 +65536 x1110 +131072 x1127 +262144 x1144 +524288 x1161 +1048576 x1178 +2097152 x1195 +4194304 x1212 +8388608 x1229 +16777216 x1246 +33554432 x1263 +67108864 x1280 +134217728 x1297 +268435456 x1314 +536870912 x1331 +1073741824 x1348 +2147483648 x1365 +65536 x1094 +131072 x1111 +262144 x1128 +524288 x1145 +1048576 x1162 +2097152 x1179 +4194304 x1196 +8388608 x1213 +16777216 x1230 +33554432 x1247 +67108864 x1264 +134217728 x1281 +268435456 x1298 +536870912 x1315 +1073741824 x1332 +2147483648 x1349 +4294967296 x1366 -1 x36 -2 x37 -4 x38 -8 x39 -16 x40 -32 x41 -64 x42 -128 x43 -256 x44 -512 x45 -1024 x46 -2048 x47 -4096 x48 -8192 x49 -16384 x50 -32768 x51 -65536 x52 -131072 x53 -262144 x54 -524288 x55 -1048576 x56 -2097152 x57 -4194304 x58 -8388608 x59 -16777216 x60 -33554432 x61 -67108864 x62 -134217728 x63 -268435456 x64 -536870912 x65 -1073741824 x66 -2147483648 x67 -4294967296 x68 -8589934592 x69 = 0; 
+1 x36 -1 x1 +2 x37 -2 x2 +4 x38 -4 x3 +8 x39 -8 x4 +16 x40 -16 x5 +32 x41 -32 x6 +64 x42 -64 x7 +128 x43 -128 x8 +256 x44 -256 x9 +512 x45 -512 x10 +1024 x46 -1024 x11 +2048 x47 -2048 x12 +4096 x48 -4096 x13 +8192 x49 -8192 x14 +16384 x50 -16384 x15 +32768 x51 -32768 x16 +65536 x52 -65536 x17 +131072 x53 -131072 x18 +262144 x54 -262144 x19 +524288 x55 -524288 x20 +1048576 x56 -1048576 x21 +2097152 x57 -2097152 x22 +4194304 x58 -4194304 x23 +8388608 x59 -8388608 x24 +16777216 x60 -16777216 x25 +33554432 x61 -33554432 x26 +67108864 x62 -67108864 x27 +134217728 x63 -134217728 x28 +268435456 x64 -268435456 x29 +536870912 x65 -536870912 x30 +1073741824 x66 -1073741824 x31 +2147483648 x67 -2147483648 x32 +4294967296 x68 -4294967296 x33 +8589934592 x69 -8589934592 x34 >= 1 ;
+1 x1402 = 0 ;
+2 x394 +1 x395 -1 x106 -1 x105 = 0 ;
+1 x395 -1 x598 = 0 ;
+1 x598 -1 x746 = 0 ;
+1 x746 -1 x857 = 0 ;
+1 x857 -1 x944 = 0 ;
+1 x944 -1 x1015 = 0 ;
+1 x1403 = 0 ;
+2 x396 +1 x397 -1 x109 -1 x107 -1 x108 = 0 ;
+2 x599 +1 x600 -1 x394 -1 x397 = 0 ;
+1 x600 -1 x747 = 0 ;
+1 x747 -1 x858 = 0 ;
+1 x858 -1 x945 = 0 ;
+1 x945 -1 x1016 = 0 ;
+1 x1404 = 0 ;
+2 x398 +1 x399 -1 x112 -1 x110 -1 x111 = 0 ;
+1 x113 -1 x457 = 0 ;
+2 x601 +1 x602 -1 x457 -1 x399 -1 x396 = 0 ;
+2 x748 +1 x749 -1 x599 -1 x602 = 0 ;
+1 x749 -1 x859 = 0 ;
+1 x859 -1 x946 = 0 ;
+1 x946 -1 x1017 = 0 ;
+1 x1405 = 0 ;
+2 x400 +1 x401 -1 x116 -1 x114 -1 x115 = 0 ;
+2 x458 +1 x459 -1 x118 -1 x117 = 0 ;
+2 x603 +1 x604 -1 x459 -1 x401 -1 x398 = 0 ;
+2 x750 +1 x751 -1 x601 -1 x604 = 0 ;
+2 x860 +1 x861 -1 x748 -1 x751 = 0 ;
+1 x861 -1 x947 = 0 ;
+1 x947 -1 x1018 = 0 ;
+1 x1406 = 0 ;
+2 x402 +1 x403 -1 x121 -1 x119 -1 x120 = 0 ;
+2 x460 +1 x461 -1 x124 -1 x122 -1 x123 = 0 ;
+2 x605 +1 x606 -1 x461 -1 x403 -1 x400 = 0 ;
+1 x458 -1 x661 = 0 ;
+2 x752 +1 x753 -1 x661 -1 x606 -1 x603 = 0 ;
+2 x862 +1 x863 -1 x750 -1 x753 = 0 ;
+2 x948 +1 x949 -1 x860 -1 x863 = 0 ;
+1 x949 -1 x1019 = 0 ;
+1 x1407 = 0 ;
+2 x404 +1 x405 -1 x127 -1 x125 -1 x126 = 0 ;
+2 x462 +1 x463 -1 x130 -1 x128 -1 x129 = 0 ;
+1 x131 -1 x509 = 0 ;
+2 x607 +1 x608 -1 x463 -1 x405 -1 x402 = 0 ;
+2 x662 +1 x663 -1 x509 -1 x460 = 0 ;
+2 x754 +1 x755 -1 x663 -1 x608 -1 x605 = 0 ;
+2 x864 +1 x865 -1 x752 -1 x755 = 0 ;
+2 x950 +1 x951 -1 x862 -1 x865 = 0 ;
+2 x1020 +1 x1021 -1 x948 -1 x951 = 0 ;
+1 x1408 = 0 ;
+2 x406 +1 x407 -1 x134 -1 x132 -1 x133 = 0 ;
+2 x464 +1 x465 -1 x137 -1 x135 -1 x136 = 0 ;
+2 x510 +1 x511 -1 x139 -1 x138 = 0 ;
+2 x609 +1 x610 -1 x465 -1 x407 -1 x404 = 0 ;
+2 x664 +1 x665 -1 x511 -1 x462 = 0 ;
+2 x756 +1 x757 -1 x665 -1 x610 -1 x607 = 0 ;
+1 x662 -1 x809 = 0 ;
+2 x866 +1 x867 -1 x809 -1 x757 -1 x754 = 0 ;
+2 x952 +1 x953 -1 x864 -1 x867 = 0 ;
+2 x1022 +1 x1023 -1 x950 -1 x953 = 0 ;
+1 x1409 = 0 ;
+2 x408 +1 x409 -1 x142 -1 x140 -1 x141 = 0 ;
+2 x466 +1 x467 -1 x145 -1 x143 -1 x144 = 0 ;
+2 x512 +1 x513 -1 x148 -1 x146 -1 x147 = 0 ;
+2 x611 +1 x612 -1 x467 -1 x409 -1 x406 = 0 ;
+2 x666 +1 x667 -1 x510 -1 x464 -1 x513 = 0 ;
+2 x758 +1 x759 -1 x667 -1 x612 -1 x609 = 0 ;
+1 x664 -1 x810 = 0 ;
+2 x868 +1 x869 -1 x810 -1 x759 -1 x756 = 0 ;
+2 x954 +1 x955 -1 x866 -1 x869 = 0 ;
+2 x1024 +1 x1025 -1 x952 -1 x955 = 0 ;
+1 x1410 = 0 ;
+2 x410 +1 x411 -1 x151 -1 x149 -1 x150 = 0 ;
+2 x468 +1 x469 -1 x154 -1 x152 -1 x153 = 0 ;
+2 x514 +1 x515 -1 x157 -1 x155 -1 x156 = 0 ;
+1 x158 -1 x549 = 0 ;
+2 x613 +1 x614 -1 x469 -1 x411 -1 x408 = 0 ;
+2 x668 +1 x669 -1 x512 -1 x466 -1 x515 = 0 ;
+1 x549 -1 x707 = 0 ;
+2 x760 +1 x761 -1 x669 -1 x614 -1 x611 = 0 ;
+2 x811 +1 x812 -1 x707 -1 x666 = 0 ;
+2 x870 +1 x871 -1 x812 -1 x761 -1 x758 = 0 ;
+2 x956 +1 x957 -1 x868 -1 x871 = 0 ;
+2 x1026 +1 x1027 -1 x954 -1 x957 = 0 ;
+1 x1411 = 0 ;
+2 x412 +1 x413 -1 x161 -1 x159 -1 x160 = 0 ;
+2 x470 +1 x471 -1 x164 -1 x162 -1 x163 = 0 ;
+2 x516 +1 x517 -1 x167 -1 x165 -1 x166 = 0 ;
+2 x550 +1 x551 -1 x169 -1 x168 = 0 ;
+2 x615 +1 x616 -1 x471 -1 x413 -1 x410 = 0 ;
+2 x670 +1 x671 -1 x514 -1 x468 -1 x517 = 0 ;
+1 x551 -1 x708 = 0 ;
+2 x762 +1 x763 -1 x671 -1 x616 -1 x613 = 0 ;
+2 x813 +1 x814 -1 x708 -1 x668 = 0 ;
+2 x872 +1 x873 -1 x814 -1 x763 -1 x760 = 0 ;
+1 x811 -1 x920 = 0 ;
+2 x958 +1 x959 -1 x920 -1 x873 -1 x870 = 0 ;
+2 x1028 +1 x1029 -1 x956 -1 x959 = 0 ;
+1 x1412 = 0 ;
+2 x414 +1 x415 -1 x172 -1 x170 -1 x171 = 0 ;
+2 x472 +1 x473 -1 x175 -1 x173 -1 x174 = 0 ;
+2 x518 +1 x519 -1 x178 -1 x176 -1 x177 = 0 ;
+2 x552 +1 x553 -1 x181 -1 x179 -1 x180 = 0 ;
+2 x617 +1 x618 -1 x473 -1 x415 -1 x412 = 0 ;
+2 x672 +1 x673 -1 x516 -1 x470 -1 x519 = 0 ;
+2 x709 +1 x710 -1 x550 -1 x553 = 0 ;
+2 x764 +1 x765 -1 x673 -1 x618 -1 x615 = 0 ;
+2 x815 +1 x816 -1 x710 -1 x670 = 0 ;
+2 x874 +1 x875 -1 x816 -1 x765 -1 x762 = 0 ;
+1 x813 -1 x921 = 0 ;
+2 x960 +1 x961 -1 x921 -1 x875 -1 x872 = 0 ;
+2 x1030 +1 x1031 -1 x958 -1 x961 = 0 ;
+1 x1413 = 0 ;
+2 x416 +1 x417 -1 x184 -1 x182 -1 x183 = 0 ;
+2 x474 +1 x475 -1 x187 -1 x185 -1 x186 = 0 ;
+2 x520 +1 x521 -1 x190 -1 x188 -1 x189 = 0 ;
+2 x554 +1 x555 -1 x193 -1 x191 -1 x192 = 0 ;
+1 x194 -1 x577 = 0 ;
+2 x619 +1 x620 -1 x475 -1 x417 -1 x414 = 0 ;
+2 x674 +1 x675 -1 x518 -1 x472 -1 x521 = 0 ;
+2 x711 +1 x712 -1 x577 -1 x555 -1 x552 = 0 ;
+2 x766 +1 x767 -1 x675 -1 x620 -1 x617 = 0 ;
+2 x817 +1 x818 -1 x709 -1 x672 -1 x712 = 0 ;
+2 x876 +1 x877 -1 x818 -1 x767 -1 x764 = 0 ;
+1 x815 -1 x922 = 0 ;
+2 x962 +1 x963 -1 x922 -1 x877 -1 x874 = 0 ;
+2 x1032 +1 x1033 -1 x960 -1 x963 = 0 ;
+1 x1414 = 0 ;
+2 x418 +1 x419 -1 x197 -1 x195 -1 x196 = 0 ;
+2 x476 +1 x477 -1 x200 -1 x198 -1 x199 = 0 ;
+2 x522 +1 x523 -1 x203 -1 x201 -1 x202 = 0 ;
+2 x556 +1 x557 -1 x206 -1 x204 -1 x205 = 0 ;
+2 x578 +1 x579 -1 x208 -1 x207 = 0 ;
+2 x621 +1 x622 -1 x477 -1 x419 -1 x416 = 0 ;
+2 x676 +1 x677 -1 x520 -1 x474 -1 x523 = 0 ;
+2 x713 +1 x714 -1 x579 -1 x557 -1 x554 = 0 ;
+2 x768 +1 x769 -1 x677 -1 x622 -1 x619 = 0 ;
+2 x819 +1 x820 -1 x711 -1 x674 -1 x714 = 0 ;
+2 x878 +1 x879 -1 x820 -1 x769 -1 x766 = 0 ;
+1 x817 -1 x923 = 0 ;
+2 x964 +1 x965 -1 x923 -1 x879 -1 x876 = 0 ;
+2 x1034 +1 x1035 -1 x962 -1 x965 = 0 ;
+1 x1415 = 0 ;
+2 x420 +1 x421 -1 x211 -1 x209 -1 x210 = 0 ;
+2 x478 +1 x479 -1 x214 -1 x212 -1 x213 = 0 ;
+2 x524 +1 x525 -1 x217 -1 x215 -1 x216 = 0 ;
+2 x558 +1 x559 -1 x220 -1 x218 -1 x219 = 0 ;
+2 x580 +1 x581 -1 x223 -1 x221 -1 x222 = 0 ;
+2 x623 +1 x624 -1 x479 -1 x421 -1 x418 = 0 ;
+2 x678 +1 x679 -1 x522 -1 x476 -1 x525 = 0 ;
+2 x715 +1 x716 -1 x581 -1 x559 -1 x556 = 0 ;
+1 x578 -1 x735 = 0 ;
+2 x770 +1 x771 -1 x679 -1 x624 -1 x621 = 0 ;
+2 x821 +1 x822 -1 x713 -1 x676 -1 x716 = 0 ;
+1 x735 -1 x846 = 0 ;
+2 x880 +1 x881 -1 x822 -1 x771 -1 x768 = 0 ;
+2 x924 +1 x925 -1 x846 -1 x819 = 0 ;
+2 x966 +1 x967 -1 x925 -1 x881 -1 x878 = 0 ;
+2 x1036 +1 x1037 -1 x964 -1 x967 = 0 ;
+1 x1416 = 0 ;
+2 x422 +1 x423 -1 x226 -1 x224 -1 x225 = 0 ;
+2 x480 +1 x481 -1 x229 -1 x227 -1 x228 = 0 ;
+2 x526 +1 x527 -1 x232 -1 x230 -1 x231 = 0 ;
+2 x560 +1 x561 -1 x235 -1 x233 -1 x234 = 0 ;
+2 x582 +1 x583 -1 x238 -1 x236 -1 x237 = 0 ;
+1 x239 -1 x593 = 0 ;
+2 x625 +1 x626 -1 x481 -1 x423 -1 x420 = 0 ;
+2 x680 +1 x681 -1 x524 -1 x478 -1 x527 = 0 ;
+2 x717 +1 x718 -1 x583 -1 x561 -1 x558 = 0 ;
+2 x736 +1 x737 -1 x593 -1 x580 = 0 ;
+2 x772 +1 x773 -1 x681 -1 x626 -1 x623 = 0 ;
+2 x823 +1 x824 -1 x715 -1 x678 -1 x718 = 0 ;
+1 x737 -1 x847 = 0 ;
+2 x882 +1 x883 -1 x824 -1 x773 -1 x770 = 0 ;
+2 x926 +1 x927 -1 x847 -1 x821 = 0 ;
+2 x968 +1 x969 -1 x927 -1 x883 -1 x880 = 0 ;
+1 x924 -1 x1007 = 0 ;
+2 x1038 +1 x1039 -1 x1007 -1 x969 -1 x966 = 0 ;
+1 x1417 = 0 ;
+2 x424 +1 x425 -1 x242 -1 x240 -1 x241 = 0 ;
+2 x482 +1 x483 -1 x245 -1 x243 -1 x244 = 0 ;
+2 x528 +1 x529 -1 x248 -1 x246 -1 x247 = 0 ;
+2 x562 +1 x563 -1 x251 -1 x249 -1 x250 = 0 ;
+2 x584 +1 x585 -1 x254 -1 x252 -1 x253 = 0 ;
+2 x594 +1 x595 -1 x256 -1 x255 = 0 ;
+2 x627 +1 x628 -1 x483 -1 x425 -1 x422 = 0 ;
+2 x682 +1 x683 -1 x526 -1 x480 -1 x529 = 0 ;
+2 x719 +1 x720 -1 x585 -1 x563 -1 x560 = 0 ;
+2 x738 +1 x739 -1 x595 -1 x582 = 0 ;
+2 x774 +1 x775 -1 x683 -1 x628 -1 x625 = 0 ;
+2 x825 +1 x826 -1 x717 -1 x680 -1 x720 = 0 ;
+2 x848 +1 x849 -1 x736 -1 x739 = 0 ;
+2 x884 +1 x885 -1 x826 -1 x775 -1 x772 = 0 ;
+2 x928 +1 x929 -1 x849 -1 x823 = 0 ;
+2 x970 +1 x971 -1 x929 -1 x885 -1 x882 = 0 ;
+1 x926 -1 x1008 = 0 ;
+2 x1040 +1 x1041 -1 x1008 -1 x971 -1 x968 = 0 ;
+1 x1418 = 0 ;
+2 x426 +1 x427 -1 x259 -1 x257 -1 x258 = 0 ;
+2 x484 +1 x485 -1 x262 -1 x260 -1 x261 = 0 ;
+2 x530 +1 x531 -1 x265 -1 x263 -1 x264 = 0 ;
+2 x564 +1 x565 -1 x268 -1 x266 -1 x267 = 0 ;
+2 x586 +1 x587 -1 x271 -1 x269 -1 x270 = 0 ;
+1 x272 -1 x596 = 0 ;
+2 x629 +1 x630 -1 x485 -1 x427 -1 x424 = 0 ;
+2 x684 +1 x685 -1 x528 -1 x482 -1 x531 = 0 ;
+2 x721 +1 x722 -1 x587 -1 x565 -1 x562 = 0 ;
+2 x740 +1 x741 -1 x594 -1 x584 -1 x596 = 0 ;
+2 x776 +1 x777 -1 x685 -1 x630 -1 x627 = 0 ;
+2 x827 +1 x828 -1 x719 -1 x682 -1 x722 = 0 ;
+2 x850 +1 x851 -1 x738 -1 x741 = 0 ;
+2 x886 +1 x887 -1 x828 -1 x777 -1 x774 = 0 ;
+2 x930 +1 x931 -1 x848 -1 x825 -1 x851 = 0 ;
+2 x972 +1 x973 -1 x931 -1 x887 -1 x884 = 0 ;
+1 x928 -1 x1009 = 0 ;
+2 x1042 +1 x1043 -1 x1009 -1 x973 -1 x970 = 0 ;
+1 x1419 = 0 ;
+2 x428 +1 x429 -1 x275 -1 x273 -1 x274 = 0 ;
+2 x486 +1 x487 -1 x278 -1 x276 -1 x277 = 0 ;
+2 x532 +1 x533 -1 x281 -1 x279 -1 x280 = 0 ;
+2 x566 +1 x567 -1 x284 -1 x282 -1 x283 = 0 ;
+2 x588 +1 x589 -1 x287 -1 x285 -1 x286 = 0 ;
+2 x631 +1 x632 -1 x487 -1 x429 -1 x426 = 0 ;
+2 x686 +1 x687 -1 x530 -1 x484 -1 x533 = 0 ;
+2 x723 +1 x724 -1 x589 -1 x567 -1 x564 = 0 ;
+1 x586 -1 x742 = 0 ;
+2 x778 +1 x779 -1 x687 -1 x632 -1 x629 = 0 ;
+2 x829 +1 x830 -1 x721 -1 x684 -1 x724 = 0 ;
+2 x852 +1 x853 -1 x740 -1 x742 = 0 ;
+2 x888 +1 x889 -1 x830 -1 x779 -1 x776 = 0 ;
+2 x932 +1 x933 -1 x850 -1 x827 -1 x853 = 0 ;
+2 x974 +1 x975 -1 x933 -1 x889 -1 x886 = 0 ;
+1 x930 -1 x1010 = 0 ;
+2 x1044 +1 x1045 -1 x1010 -1 x975 -1 x972 = 0 ;
+1 x1420 = 0 ;
+2 x430 +1 x431 -1 x290 -1 x288 -1 x289 = 0 ;
+2 x488 +1 x489 -1 x293 -1 x291 -1 x292 = 0 ;
+2 x534 +1 x535 -1 x296 -1 x294 -1 x295 = 0 ;
+2 x568 +1 x569 -1 x299 -1 x297 -1 x298 = 0 ;
+2 x590 +1 x591 -1 x301 -1 x300 = 0 ;
+2 x633 +1 x634 -1 x489 -1 x431 -1 x428 = 0 ;
+2 x688 +1 x689 -1 x532 -1 x486 -1 x535 = 0 ;
+2 x725 +1 x726 -1 x591 -1 x569 -1 x566 = 0 ;
+1 x588 -1 x743 = 0 ;
+2 x780 +1 x781 -1 x689 -1 x634 -1 x631 = 0 ;
+2 x831 +1 x832 -1 x723 -1 x686 -1 x726 = 0 ;
+1 x743 -1 x854 = 0 ;
+2 x890 +1 x891 -1 x832 -1 x781 -1 x778 = 0 ;
+2 x934 +1 x935 -1 x852 -1 x829 -1 x854 = 0 ;
+2 x976 +1 x977 -1 x935 -1 x891 -1 x888 = 0 ;
+1 x932 -1 x1011 = 0 ;
+2 x1046 +1 x1047 -1 x1011 -1 x977 -1 x974 = 0 ;
+1 x1421 = 0 ;
+2 x432 +1 x433 -1 x304 -1 x302 -1 x303 = 0 ;
+2 x490 +1 x491 -1 x307 -1 x305 -1 x306 = 0 ;
+2 x536 +1 x537 -1 x310 -1 x308 -1 x309 = 0 ;
+2 x570 +1 x571 -1 x313 -1 x311 -1 x312 = 0 ;
+1 x314 -1 x592 = 0 ;
+2 x635 +1 x636 -1 x491 -1 x433 -1 x430 = 0 ;
+2 x690 +1 x691 -1 x534 -1 x488 -1 x537 = 0 ;
+2 x727 +1 x728 -1 x592 -1 x571 -1 x568 = 0 ;
+1 x590 -1 x744 = 0 ;
+2 x782 +1 x783 -1 x691 -1 x636 -1 x633 = 0 ;
+2 x833 +1 x834 -1 x725 -1 x688 -1 x728 = 0 ;
+1 x744 -1 x855 = 0 ;
+2 x892 +1 x893 -1 x834 -1 x783 -1 x780 = 0 ;
+2 x936 +1 x937 -1 x855 -1 x831 = 0 ;
+2 x978 +1 x979 -1 x937 -1 x893 -1 x890 = 0 ;
+1 x934 -1 x1012 = 0 ;
+2 x1048 +1 x1049 -1 x1012 -1 x979 -1 x976 = 0 ;
+1 x1422 = 0 ;
+2 x434 +1 x435 -1 x317 -1 x315 -1 x316 = 0 ;
+2 x492 +1 x493 -1 x320 -1 x318 -1 x319 = 0 ;
+2 x538 +1 x539 -1 x323 -1 x321 -1 x322 = 0 ;
+2 x572 +1 x573 -1 x326 -1 x324 -1 x325 = 0 ;
+2 x637 +1 x638 -1 x493 -1 x435 -1 x432 = 0 ;
+2 x692 +1 x693 -1 x536 -1 x490 -1 x539 = 0 ;
+2 x729 +1 x730 -1 x570 -1 x573 = 0 ;
+2 x784 +1 x785 -1 x693 -1 x638 -1 x635 = 0 ;
+2 x835 +1 x836 -1 x727 -1 x690 -1 x730 = 0 ;
+2 x894 +1 x895 -1 x836 -1 x785 -1 x782 = 0 ;
+1 x833 -1 x938 = 0 ;
+2 x980 +1 x981 -1 x938 -1 x895 -1 x892 = 0 ;
+1 x936 -1 x1013 = 0 ;
+2 x1050 +1 x1051 -1 x1013 -1 x981 -1 x978 = 0 ;
+1 x1423 = 0 ;
+2 x436 +1 x437 -1 x329 -1 x327 -1 x328 = 0 ;
+2 x494 +1 x495 -1 x332 -1 x330 -1 x331 = 0 ;
+2 x540 +1 x541 -1 x335 -1 x333 -1 x334 = 0 ;
+2 x574 +1 x575 -1 x337 -1 x336 = 0 ;
+2 x639 +1 x640 -1 x495 -1 x437 -1 x434 = 0 ;
+2 x694 +1 x695 -1 x538 -1 x492 -1 x541 = 0 ;
+2 x731 +1 x732 -1 x572 -1 x575 = 0 ;
+2 x786 +1 x787 -1 x695 -1 x640 -1 x637 = 0 ;
+2 x837 +1 x838 -1 x729 -1 x692 -1 x732 = 0 ;
+2 x896 +1 x897 -1 x838 -1 x787 -1 x784 = 0 ;
+1 x835 -1 x939 = 0 ;
+2 x982 +1 x983 -1 x939 -1 x897 -1 x894 = 0 ;
+2 x1052 +1 x1053 -1 x980 -1 x983 = 0 ;
+1 x1424 = 0 ;
+2 x438 +1 x439 -1 x340 -1 x338 -1 x339 = 0 ;
+2 x496 +1 x497 -1 x343 -1 x341 -1 x342 = 0 ;
+2 x542 +1 x543 -1 x346 -1 x344 -1 x345 = 0 ;
+1 x347 -1 x576 = 0 ;
+2 x641 +1 x642 -1 x497 -1 x439 -1 x436 = 0 ;
+2 x696 +1 x697 -1 x540 -1 x494 -1 x543 = 0 ;
+2 x733 +1 x734 -1 x574 -1 x576 = 0 ;
+2 x788 +1 x789 -1 x697 -1 x642 -1 x639 = 0 ;
+2 x839 +1 x840 -1 x731 -1 x694 -1 x734 = 0 ;
+2 x898 +1 x899 -1 x840 -1 x789 -1 x786 = 0 ;
+1 x837 -1 x940 = 0 ;
+2 x984 +1 x985 -1 x940 -1 x899 -1 x896 = 0 ;
+2 x1054 +1 x1055 -1 x982 -1 x985 = 0 ;
+1 x1425 = 0 ;
+2 x440 +1 x441 -1 x350 -1 x348 -1 x349 = 0 ;
+2 x498 +1 x499 -1 x353 -1 x351 -1 x352 = 0 ;
+2 x544 +1 x545 -1 x356 -1 x354 -1 x355 = 0 ;
+2 x643 +1 x644 -1 x499 -1 x441 -1 x438 = 0 ;
+2 x698 +1 x699 -1 x542 -1 x496 -1 x545 = 0 ;
+2 x790 +1 x791 -1 x699 -1 x644 -1 x641 = 0 ;
+2 x841 +1 x842 -1 x733 -1 x696 = 0 ;
+2 x900 +1 x901 -1 x842 -1 x791 -1 x788 = 0 ;
+1 x839 -1 x941 = 0 ;
+2 x986 +1 x987 -1 x941 -1 x901 -1 x898 = 0 ;
+2 x1056 +1 x1057 -1 x984 -1 x987 = 0 ;
+1 x1426 = 0 ;
+2 x442 +1 x443 -1 x359 -1 x357 -1 x358 = 0 ;
+2 x500 +1 x501 -1 x362 -1 x360 -1 x361 = 0 ;
+2 x546 +1 x547 -1 x364 -1 x363 = 0 ;
+2 x645 +1 x646 -1 x501 -1 x443 -1 x440 = 0 ;
+2 x700 +1 x701 -1 x544 -1 x498 -1 x547 = 0 ;
+2 x792 +1 x793 -1 x701 -1 x646 -1 x643 = 0 ;
+1 x698 -1 x843 = 0 ;
+2 x902 +1 x903 -1 x843 -1 x793 -1 x790 = 0 ;
+1 x841 -1 x942 = 0 ;
+2 x988 +1 x989 -1 x942 -1 x903 -1 x900 = 0 ;
+2 x1058 +1 x1059 -1 x986 -1 x989 = 0 ;
+1 x1427 = 0 ;
+2 x444 +1 x445 -1 x367 -1 x365 -1 x366 = 0 ;
+2 x502 +1 x503 -1 x370 -1 x368 -1 x369 = 0 ;
+1 x371 -1 x548 = 0 ;
+2 x647 +1 x648 -1 x503 -1 x445 -1 x442 = 0 ;
+2 x702 +1 x703 -1 x546 -1 x500 -1 x548 = 0 ;
+2 x794 +1 x795 -1 x703 -1 x648 -1 x645 = 0 ;
+1 x700 -1 x844 = 0 ;
+2 x904 +1 x905 -1 x844 -1 x795 -1 x792 = 0 ;
+2 x990 +1 x991 -1 x902 -1 x905 = 0 ;
+2 x1060 +1 x1061 -1 x988 -1 x991 = 0 ;
+1 x1428 = 0 ;
+2 x446 +1 x447 -1 x374 -1 x372 -1 x373 = 0 ;
+2 x504 +1 x505 -1 x377 -1 x375 -1 x376 = 0 ;
+2 x649 +1 x650 -1 x505 -1 x447 -1 x444 = 0 ;
+1 x502 -1 x704 = 0 ;
+2 x796 +1 x797 -1 x704 -1 x650 -1 x647 = 0 ;
+1 x702 -1 x845 = 0 ;
+2 x906 +1 x907 -1 x845 -1 x797 -1 x794 = 0 ;
+2 x992 +1 x993 -1 x904 -1 x907 = 0 ;
+2 x1062 +1 x1063 -1 x990 -1 x993 = 0 ;
+1 x1429 = 0 ;
+2 x448 +1 x449 -1 x380 -1 x378 -1 x379 = 0 ;
+2 x506 +1 x507 -1 x382 -1 x381 = 0 ;
+2 x651 +1 x652 -1 x507 -1 x449 -1 x446 = 0 ;
+1 x504 -1 x705 = 0 ;
+2 x798 +1 x799 -1 x705 -1 x652 -1 x649 = 0 ;
+2 x908 +1 x909 -1 x796 -1 x799 = 0 ;
+2 x994 +1 x995 -1 x906 -1 x909 = 0 ;
+2 x1064 +1 x1065 -1 x992 -1 x995 = 0 ;
+1 x1430 = 0 ;
+2 x450 +1 x451 -1 x385 -1 x383 -1 x384 = 0 ;
+1 x386 -1 x508 = 0 ;
+2 x653 +1 x654 -1 x508 -1 x451 -1 x448 = 0 ;
+1 x506 -1 x706 = 0 ;
+2 x800 +1 x801 -1 x706 -1 x654 -1 x651 = 0 ;
+2 x910 +1 x911 -1 x798 -1 x801 = 0 ;
+2 x996 +1 x997 -1 x908 -1 x911 = 0 ;
+2 x1066 +1 x1067 -1 x994 -1 x997 = 0 ;
+1 x1431 = 0 ;
+2 x452 +1 x453 -1 x389 -1 x387 -1 x388 = 0 ;
+2 x655 +1 x656 -1 x450 -1 x453 = 0 ;
+2 x802 +1 x803 -1 x653 -1 x656 = 0 ;
+2 x912 +1 x913 -1 x800 -1 x803 = 0 ;
+2 x998 +1 x999 -1 x910 -1 x913 = 0 ;
+2 x1068 +1 x1069 -1 x996 -1 x999 = 0 ;
+1 x1432 = 0 ;
+2 x454 +1 x455 -1 x391 -1 x390 = 0 ;
+2 x657 +1 x658 -1 x452 -1 x455 = 0 ;
+2 x804 +1 x805 -1 x655 -1 x658 = 0 ;
+2 x914 +1 x915 -1 x802 -1 x805 = 0 ;
+2 x1000 +1 x1001 -1 x912 -1 x915 = 0 ;
+2 x1070 +1 x1071 -1 x998 -1 x1001 = 0 ;
+1 x1433 = 0 ;
+1 x392 -1 x456 = 0 ;
+2 x659 +1 x660 -1 x454 -1 x456 = 0 ;
+2 x806 +1 x807 -1 x657 -1 x660 = 0 ;
+2 x916 +1 x917 -1 x804 -1 x807 = 0 ;
+2 x1002 +1 x1003 -1 x914 -1 x917 = 0 ;
+2 x1072 +1 x1073 -1 x1000 -1 x1003 = 0 ;
+1 x1434 = 0 ;
+1 x659 -1 x808 = 0 ;
+2 x918 +1 x919 -1 x806 -1 x808 = 0 ;
+2 x1004 +1 x1005 -1 x916 -1 x919 = 0 ;
+2 x1074 +1 x1075 -1 x1002 -1 x1005 = 0 ;
+1 x918 -1 x1006 = 0 ;
+2 x1076 +1 x1077 -1 x1004 -1 x1006 = 0 ;
+1 x1078 -1 x104 = 0 ;
+1 x1079 -1 x106 = 0 ;
+1 x1080 -1 x109 = 0 ;
+1 x1081 -1 x113 = 0 ;
+1 x1082 -1 x118 = 0 ;
+1 x1083 -1 x124 = 0 ;
+1 x1084 -1 x131 = 0 ;
+1 x1085 -1 x139 = 0 ;
+1 x1086 -1 x148 = 0 ;
+1 x1087 -1 x158 = 0 ;
+1 x1088 -1 x169 = 0 ;
+1 x1089 -1 x181 = 0 ;
+1 x1090 -1 x194 = 0 ;
+1 x1091 -1 x208 = 0 ;
+1 x1092 -1 x223 = 0 ;
+1 x1093 -1 x239 = 0 ;
+1 x1094 -1 x256 = 0 ;
+1 x1095 -1 x105 = 0 ;
+1 x1096 -1 x108 = 0 ;
+1 x1097 -1 x112 = 0 ;
+1 x1098 -1 x117 = 0 ;
+1 x1099 -1 x123 = 0 ;
+1 x1100 -1 x130 = 0 ;
+1 x1101 -1 x138 = 0 ;
+1 x1102 -1 x147 = 0 ;
+1 x1103 -1 x157 = 0 ;
+1 x1104 -1 x168 = 0 ;
+1 x1105 -1 x180 = 0 ;
+1 x1106 -1 x193 = 0 ;
+1 x1107 -1 x207 = 0 ;
+1 x1108 -1 x222 = 0 ;
+1 x1109 -1 x238 = 0 ;
+1 x1110 -1 x255 = 0 ;
+1 x1111 -1 x272 = 0 ;
+1 x1112 -1 x107 = 0 ;
+1 x1113 -1 x111 = 0 ;
+1 x1114 -1 x116 = 0 ;
+1 x1115 -1 x122 = 0 ;
+1 x1116 -1 x129 = 0 ;
+1 x1117 -1 x137 = 0 ;
+1 x1118 -1 x146 = 0 ;
+1 x1119 -1 x156 = 0 ;
+1 x1120 -1 x167 = 0 ;
+1 x1121 -1 x179 = 0 ;
+1 x1122 -1 x192 = 0 ;
+1 x1123 -1 x206 = 0 ;
+1 x1124 -1 x221 = 0 ;
+1 x1125 -1 x237 = 0 ;
+1 x1126 -1 x254 = 0 ;
+1 x1127 -1 x271 = 0 ;
+1 x1128 -1 x287 = 0 ;
+1 x1129 -1 x110 = 0 ;
+1 x1130 -1 x115 = 0 ;
+1 x1131 -1 x121 = 0 ;
+1 x1132 -1 x128 = 0 ;
+1 x1133 -1 x136 = 0 ;
+1 x1134 -1 x145 = 0 ;
+1 x1135 -1 x155 = 0 ;
+1 x1136 -1 x166 = 0 ;
+1 x1137 -1 x178 = 0 ;
+1 x1138 -1 x191 = 0 ;
+1 x1139 -1 x205 = 0 ;
+1 x1140 -1 x220 = 0 ;
+1 x1141 -1 x236 = 0 ;
+1 x1142 -1 x253 = 0 ;
+1 x1143 -1 x270 = 0 ;
+1 x1144 -1 x286 = 0 ;
+1 x1145 -1 x301 = 0 ;
+1 x1146 -1 x114 = 0 ;
+1 x1147 -1 x120 = 0 ;
+1 x1148 -1 x127 = 0 ;
+1 x1149 -1 x135 = 0 ;
+1 x1150 -1 x144 = 0 ;
+1 x1151 -1 x154 = 0 ;
+1 x1152 -1 x165 = 0 ;
+1 x1153 -1 x177 = 0 ;
+1 x1154 -1 x190 = 0 ;
+1 x1155 -1 x204 = 0 ;
+1 x1156 -1 x219 = 0 ;
+1 x1157 -1 x235 = 0 ;
+1 x1158 -1 x252 = 0 ;
+1 x1159 -1 x269 = 0 ;
+1 x1160 -1 x285 = 0 ;
+1 x1161 -1 x300 = 0 ;
+1 x1162 -1 x314 = 0 ;
+1 x1163 -1 x119 = 0 ;
+1 x1164 -1 x126 = 0 ;
+1 x1165 -1 x134 = 0 ;
+1 x1166 -1 x143 = 0 ;
+1 x1167 -1 x153 = 0 ;
+1 x1168 -1 x164 = 0 ;
+1 x1169 -1 x176 = 0 ;
+1 x1170 -1 x189 = 0 ;
+1 x1171 -1 x203 = 0 ;
+1 x1172 -1 x218 = 0 ;
+1 x1173 -1 x234 = 0 ;
+1 x1174 -1 x251 = 0 ;
+1 x1175 -1 x268 = 0 ;
+1 x1176 -1 x284 = 0 ;
+1 x1177 -1 x299 = 0 ;
+1 x1178 -1 x313 = 0 ;
+1 x1179 -1 x326 = 0 ;
+1 x1180 -1 x125 = 0 ;
+1 x1181 -1 x133 = 0 ;
+1 x1182 -1 x142 = 0 ;
+1 x1183 -1 x152 = 0 ;
+1 x1184 -1 x163 = 0 ;
+1 x1185 -1 x175 = 0 ;
+1 x1186 -1 x188 = 0 ;
+1 x1187 -1 x202 = 0 ;
+1 x1188 -1 x217 = 0 ;
+1 x1189 -1 x233 = 0 ;
+1 x1190 -1 x250 = 0 ;
+1 x1191 -1 x267 = 0 ;
+1 x1192 -1 x283 = 0 ;
+1 x1193 -1 x298 = 0 ;
+1 x1194 -1 x312 = 0 ;
+1 x1195 -1 x325 = 0 ;
+1 x1196 -1 x337 = 0 ;
+1 x1197 -1 x132 = 0 ;
+1 x1198 -1 x141 = 0 ;
+1 x1199 -1 x151 = 0 ;
+1 x1200 -1 x162 = 0 ;
+1 x1201 -1 x174 = 0 ;
+1 x1202 -1 x187 = 0 ;
+1 x1203 -1 x201 = 0 ;
+1 x1204 -1 x216 = 0 ;
+1 x1205 -1 x232 = 0 ;
+1 x1206 -1 x249 = 0 ;
+1 x1207 -1 x266 = 0 ;
+1 x1208 -1 x282 = 0 ;
+1 x1209 -1 x297 = 0 ;
+1 x1210 -1 x311 = 0 ;
+1 x1211 -1 x324 = 0 ;
+1 x1212 -1 x336 = 0 ;
+1 x1213 -1 x347 = 0 ;
+1 x1214 -1 x140 = 0 ;
+1 x1215 -1 x150 = 0 ;
+1 x1216 -1 x161 = 0 ;
+1 x1217 -1 x173 = 0 ;
+1 x1218 -1 x186 = 0 ;
+1 x1219 -1 x200 = 0 ;
+1 x1220 -1 x215 = 0 ;
+1 x1221 -1 x231 = 0 ;
+1 x1222 -1 x248 = 0 ;
+1 x1223 -1 x265 = 0 ;
+1 x1224 -1 x281 = 0 ;
+1 x1225 -1 x296 = 0 ;
+1 x1226 -1 x310 = 0 ;
+1 x1227 -1 x323 = 0 ;
+1 x1228 -1 x335 = 0 ;
+1 x1229 -1 x346 = 0 ;
+1 x1230 -1 x356 = 0 ;
+1 x1231 -1 x149 = 0 ;
+1 x1232 -1 x160 = 0 ;
+1 x1233 -1 x172 = 0 ;
+1 x1234 -1 x185 = 0 ;
+1 x1235 -1 x199 = 0 ;
+1 x1236 -1 x214 = 0 ;
+1 x1237 -1 x230 = 0 ;
+1 x1238 -1 x247 = 0 ;
+1 x1239 -1 x264 = 0 ;
+1 x1240 -1 x280 = 0 ;
+1 x1241 -1 x295 = 0 ;
+1 x1242 -1 x309 = 0 ;
+1 x1243 -1 x322 = 0 ;
+1 x1244 -1 x334 = 0 ;
+1 x1245 -1 x345 = 0 ;
+1 x1246 -1 x355 = 0 ;
+1 x1247 -1 x364 = 0 ;
+1 x1248 -1 x159 = 0 ;
+1 x1249 -1 x171 = 0 ;
+1 x1250 -1 x184 = 0 ;
+1 x1251 -1 x198 = 0 ;
+1 x1252 -1 x213 = 0 ;
+1 x1253 -1 x229 = 0 ;
+1 x1254 -1 x246 = 0 ;
+1 x1255 -1 x263 = 0 ;
+1 x1256 -1 x279 = 0 ;
+1 x1257 -1 x294 = 0 ;
+1 x1258 -1 x308 = 0 ;
+1 x1259 -1 x321 = 0 ;
+1 x1260 -1 x333 = 0 ;
+1 x1261 -1 x344 = 0 ;
+1 x1262 -1 x354 = 0 ;
+1 x1263 -1 x363 = 0 ;
+1 x1264 -1 x371 = 0 ;
+1 x1265 -1 x170 = 0 ;
+1 x1266 -1 x183 = 0 ;
+1 x1267 -1 x197 = 0 ;
+1 x1268 -1 x212 = 0 ;
+1 x1269 -1 x228 = 0 ;
+1 x1270 -1 x245 = 0 ;
+1 x1271 -1 x262 = 0 ;
+1 x1272 -1 x278 = 0 ;
+1 x1273 -1 x293 = 0 ;
+1 x1274 -1 x307 = 0 ;
+1 x1275 -1 x320 = 0 ;
+1 x1276 -1 x332 = 0 ;
+1 x1277 -1 x343 = 0 ;
+1 x1278 -1 x353 = 0 ;
+1 x1279 -1 x362 = 0 ;
+1 x1280 -1 x370 = 0 ;
+1 x1281 -1 x377 = 0 ;
+1 x1282 -1 x182 = 0 ;
+1 x1283 -1 x196 = 0 ;
+1 x1284 -1 x211 = 0 ;
+1 x1285 -1 x227 = 0 ;
+1 x1286 -1 x244 = 0 ;
+1 x1287 -1 x261 = 0 ;
+1 x1288 -1 x277 = 0 ;
+1 x1289 -1 x292 = 0 ;
+1 x1290 -1 x306 = 0 ;
+1 x1291 -1 x319 = 0 ;
+1 x1292 -1 x331 = 0 ;
+1 x1293 -1 x342 = 0 ;
+1 x1294 -1 x352 = 0 ;
+1 x1295 -1 x361 = 0 ;
+1 x1296 -1 x369 = 0 ;
+1 x1297 -1 x376 = 0 ;
+1 x1298 -1 x382 = 0 ;
+1 x1299 -1 x195 = 0 ;
+1 x1300 -1 x210 = 0 ;
+1 x1301 -1 x226 = 0 ;
+1 x1302 -1 x243 = 0 ;
+1 x1303 -1 x260 = 0 ;
+1 x1304 -1 x276 = 0 ;
+1 x1305 -1 x291 = 0 ;
+1 x1306 -1 x305 = 0 ;
+1 x1307 -1 x318 = 0 ;
+1 x1308 -1 x330 = 0 ;
+1 x1309 -1 x341 = 0 ;
+1 x1310 -1 x351 = 0 ;
+1 x1311 -1 x360 = 0 ;
+1 x1312 -1 x368 = 0 ;
+1 x1313 -1 x375 = 0 ;
+1 x1314 -1 x381 = 0 ;
+1 x1315 -1 x386 = 0 ;
+1 x1316 -1 x209 = 0 ;
+1 x1317 -1 x225 = 0 ;
+1 x1318 -1 x242 = 0 ;
+1 x1319 -1 x259 = 0 ;
+1 x1320 -1 x275 = 0 ;
+1 x1321 -1 x290 = 0 ;
+1 x1322 -1 x304 = 0 ;
+1 x1323 -1 x317 = 0 ;
+1 x1324 -1 x329 = 0 ;
+1 x1325 -1 x340 = 0 ;
+1 x1326 -1 x350 = 0 ;
+1 x1327 -1 x359 = 0 ;
+1 x1328 -1 x367 = 0 ;
+1 x1329 -1 x374 = 0 ;
+1 x1330 -1 x380 = 0 ;
+1 x1331 -1 x385 = 0 ;
+1 x1332 -1 x389 = 0 ;
+1 x1333 -1 x224 = 0 ;
+1 x1334 -1 x241 = 0 ;
+1 x1335 -1 x258 = 0 ;
+1 x1336 -1 x274 = 0 ;
+1 x1337 -1 x289 = 0 ;
+1 x1338 -1 x303 = 0 ;
+1 x1339 -1 x316 = 0 ;
+1 x1340 -1 x328 = 0 ;
+1 x1341 -1 x339 = 0 ;
+1 x1342 -1 x349 = 0 ;
+1 x1343 -1 x358 = 0 ;
+1 x1344 -1 x366 = 0 ;
+1 x1345 -1 x373 = 0 ;
+1 x1346 -1 x379 = 0 ;
+1 x1347 -1 x384 = 0 ;
+1 x1348 -1 x388 = 0 ;
+1 x1349 -1 x391 = 0 ;
+1 x1350 -1 x240 = 0 ;
+1 x1351 -1 x257 = 0 ;
+1 x1352 -1 x273 = 0 ;
+1 x1353 -1 x288 = 0 ;
+1 x1354 -1 x302 = 0 ;
+1 x1355 -1 x315 = 0 ;
+1 x1356 -1 x327 = 0 ;
+1 x1357 -1 x338 = 0 ;
+1 x1358 -1 x348 = 0 ;
+1 x1359 -1 x357 = 0 ;
+1 x1360 -1 x365 = 0 ;
+1 x1361 -1 x372 = 0 ;
+1 x1362 -1 x378 = 0 ;
+1 x1363 -1 x383 = 0 ;
+1 x1364 -1 x387 = 0 ;
+1 x1365 -1 x390 = 0 ;
+1 x1366 -1 x392 = 0 ;
+2 x1367 +1 x1 -1 x1014 -1 x1401 = 0 ;
+2 x1368 +1 x2 -1 x1015 -1 x1367 -1 x1402 = 0 ;
+2 x1369 +1 x3 -1 x1016 -1 x1368 -1 x1403 = 0 ;
+2 x1370 +1 x4 -1 x1017 -1 x1369 -1 x1404 = 0 ;
+2 x1371 +1 x5 -1 x1018 -1 x1370 -1 x1405 = 0 ;
+2 x1372 +1 x6 -1 x1019 -1 x1371 -1 x1406 = 0 ;
+2 x1373 +1 x7 -1 x1021 -1 x1372 -1 x1407 = 0 ;
+2 x1374 +1 x8 -1 x1023 -1 x1373 -1 x1020 = 0 ;
+2 x1375 +1 x9 -1 x1025 -1 x1374 -1 x1022 = 0 ;
+2 x1376 +1 x10 -1 x1027 -1 x1375 -1 x1024 = 0 ;
+2 x1377 +1 x11 -1 x1029 -1 x1376 -1 x1026 = 0 ;
+2 x1378 +1 x12 -1 x1031 -1 x1377 -1 x1028 = 0 ;
+2 x1379 +1 x13 -1 x1033 -1 x1378 -1 x1030 = 0 ;
+2 x1380 +1 x14 -1 x1035 -1 x1379 -1 x1032 = 0 ;
+2 x1381 +1 x15 -1 x1037 -1 x1380 -1 x1034 = 0 ;
+2 x1382 +1 x16 -1 x1039 -1 x1381 -1 x1036 = 0 ;
+2 x1383 +1 x17 -1 x1041 -1 x1382 -1 x1038 = 0 ;
+2 x1384 +1 x18 -1 x1043 -1 x1383 -1 x1040 = 0 ;
+2 x1385 +1 x19 -1 x1045 -1 x1384 -1 x1042 = 0 ;
+2 x1386 +1 x20 -1 x1047 -1 x1385 -1 x1044 = 0 ;
+2 x1387 +1 x21 -1 x1049 -1 x1386 -1 x1046 = 0 ;
+2 x1388 +1 x22 -1 x1051 -1 x1387 -1 x1048 = 0 ;
+2 x1389 +1 x23 -1 x1053 -1 x1388 -1 x1050 = 0 ;
+2 x1390 +1 x24 -1 x1055 -1 x1389 -1 x1052 = 0 ;
+2 x1391 +1 x25 -1 x1057 -1 x1390 -1 x1054 = 0 ;
+2 x1392 +1 x26 -1 x1059 -1 x1391 -1 x1056 = 0 ;
+2 x1393 +1 x27 -1 x1061 -1 x1392 -1 x1058 = 0 ;
+2 x1394 +1 x28 -1 x1063 -1 x1393 -1 x1060 = 0 ;
+2 x1395 +1 x29 -1 x1065 -1 x1394 -1 x1062 = 0 ;
+2 x1396 +1 x30 -1 x1067 -1 x1395 -1 x1064 = 0 ;
+2 x1397 +1 x31 -1 x1069 -1 x1396 -1 x1066 = 0 ;
+2 x1398 +1 x32 -1 x1071 -1 x1397 -1 x1068 = 0 ;
+2 x1399 +1 x33 -1 x1073 -1 x1398 -1 x1070 = 0 ;
+2 x1400 +1 x34 -1 x1075 -1 x1399 -1 x1072 = 0 ;
+1 x1400 -1 x35 = 0 ;
